Maximize
  - 1.8605693820969 edge_0_2_0_0 + 0.09617606350977 edge_0_4_0_0
   - 2.52012864454 edge_0_17_0_0 - 2.7373761966006 edge_0_18_0_0
   - 2.4060278394095 edge_0_20_0_0 - 3.402016449708 edge_0_23_0_0
   - 1.7062066145565 edge_0_24_0_0 - 3.0814839470992 edge_0_26_0_0
   - 2.233939104906 edge_0_27_0_0 - 2.7629845748532 edge_0_29_0_0
   - 3.2718878438631 edge_0_30_0_0 + 0.1854365688425308 edge_1_2_0_0
   - 0.0488795261458078 edge_1_4_0_0 - 0.8124354894958505 edge_1_26_0_0
   - 0.8247020618243223 edge_1_29_0_0 - 0.799212617694956 edge_1_30_0_0
   + 1.231338986400541 edge_2_1_0_0 + 0.2269838989344084 edge_2_4_0_0
   + 0.1268428852275404 edge_2_26_0_0 + 0.3263352734067599 edge_2_29_0_0
   + 0.4606064708898581 edge_2_30_0_0 + 0.1576653174948251 edge_4_1_0_0
   + 0.2197404429155969 edge_4_2_0_0 + 0.852535967564926 edge_4_26_0_0
   - 0.0314932112548676 edge_4_27_0_0 + 0.6277345710188909 edge_4_29_0_0
   + 0.9652558651936466 edge_4_30_0_0 + 0.1755666607884191 edge_17_18_0_0
   - 0.0953807821532736 edge_17_20_0_0 - 0.1517085286697491 edge_17_23_0_0
   - 0.4043045999326884 edge_17_24_0_0 - 0.7443673847114336 edge_17_25_0_0
   - 0.9736569701435801 edge_17_26_0_0 - 0.6413876681557767 edge_17_27_0_0
   - 0.7857014225710169 edge_17_29_0_0 - 0.2134662498935062 edge_17_30_0_0
   - 0.468969750340489 edge_18_17_0_0 + 0.2765576643194796 edge_18_20_0_0
   + 0.3017351683134119 edge_18_23_0_0 + 0.8077435219690946 edge_18_24_0_0
   - 0.8790252333444268 edge_18_25_0_0 - 0.8103271686197304 edge_18_26_0_0
   - 0.2230433631552979 edge_18_27_0_0 - 0.5988302549752387 edge_18_29_0_0
   + 0.1068243068660427 edge_18_30_0_0 + 0.5762583474517682 edge_20_17_0_0
   + 1.074893477183278 edge_20_18_0_0 + 1.581977534768466 edge_20_23_0_0
   + 1.029667290794086 edge_20_24_0_0 - 0.1835286777030364 edge_20_25_0_0
   + 0.160783437025569 edge_20_26_0_0 + 0.0736420606335483 edge_20_27_0_0
   + 0.7697182471408427 edge_20_29_0_0 + 0.7328354012722775 edge_20_30_0_0
   - 0.4748758096525376 edge_23_17_0_0 - 0.4897876778368603 edge_23_18_0_0
   - 0.0605834955418857 edge_23_20_0_0 - 0.0270490098983044 edge_23_24_0_0
   - 0.1579185627969225 edge_24_17_0_0 + 0.7826680973493969 edge_24_18_0_0
   + 0.3439237477288087 edge_24_20_0_0 + 0.6169589282034923 edge_24_23_0_0
   + 0.6836236613003157 edge_24_25_0_0 + 1.581902597303714 edge_24_26_0_0
   + 0.8328005647744148 edge_24_27_0_0 + 1.832928960231732 edge_24_29_0_0
   + 2.198052952522283 edge_24_30_0_0 - 0.2811519070185683 edge_25_17_0_0
   - 0.1508929699320991 edge_25_20_0_0 - 0.1664148512401484 edge_25_23_0_0
   - 0.2119710815457704 edge_25_24_0_0 + 1.368912751502512 edge_25_26_0_0
   + 0.4633619322562013 edge_25_27_0_0 + 0.6824109109995559 edge_25_29_0_0
   + 0.255888617297194 edge_25_30_0_0 + 0.3037416274612199 edge_26_1_0_0
   - 0.1504496505757123 edge_26_2_0_0 + 0.0583416883540245 edge_26_4_0_0
   - 0.8182371590744428 edge_26_17_0_0 - 0.6865302842672573 edge_26_18_0_0
   - 0.7234913613820069 edge_26_20_0_0 - 0.9264323402309086 edge_26_23_0_0
   - 0.4849888448271958 edge_26_24_0_0 + 2.275603043320751 edge_26_25_0_0
   + 0.9773306922235234 edge_26_27_0_0 + 1.83488728235721 edge_26_29_0_0
   + 1.338212467826766 edge_26_30_0_0 - 0.5599757930418022 edge_27_2_0_0
   - 0.359041292253354 edge_27_17_0_0 - 0.2053901301424333 edge_27_18_0_0
   - 0.2669011157651989 edge_27_20_0_0 - 0.0775310799531946 edge_27_23_0_0
   - 0.4027985033195787 edge_27_24_0_0 + 0.7770141345761081 edge_27_25_0_0
   + 0.1449805293636764 edge_27_26_0_0 + 1.127909185693279 edge_27_29_0_0
   + 0.6556515954923777 edge_27_30_0_0 - 0.106540010980928 edge_29_1_0_0
   - 0.235803883000996 edge_29_2_0_0 - 0.7150269667754855 edge_29_17_0_0
   - 0.4400236908943052 edge_29_18_0_0 - 0.5027827379291723 edge_29_20_0_0
   - 0.5757542627399529 edge_29_23_0_0 - 0.0194226941147727 edge_29_24_0_0
   + 0.5779890029182783 edge_29_25_0_0 + 2.010853059801001 edge_29_26_0_0
   + 3.153789152023004 edge_29_27_0_0 + 1.100705907246402 edge_29_30_0_0
   - 2.038634153328792 edge_30_18_0_0 - 0.998255454364259 edge_30_25_0_0
   - 1.513116460158868 edge_30_26_0_0 - 1.452597271590931 edge_30_27_0_0
   - 1.222686977048488 edge_30_29_0_0
Subject To
 one_parent_1: edge_2_1_0_0 + edge_4_1_0_0 + edge_26_1_0_0 + edge_29_1_0_0
   = 1
 consume_one_flow_unit_1: - flow_1_2_0_0 - flow_1_4_0_0 - flow_1_26_0_0
   - flow_1_29_0_0 - flow_1_30_0_0 + flow_2_1_0_0 + flow_4_1_0_0
   + flow_26_1_0_0 + flow_29_1_0_0 = 1
 one_parent_2: edge_0_2_0_0 + edge_1_2_0_0 + edge_4_2_0_0 + edge_26_2_0_0
   + edge_27_2_0_0 + edge_29_2_0_0 = 1
 consume_one_flow_unit_2: flow_0_2_0_0 + flow_1_2_0_0 - flow_2_1_0_0
   - flow_2_4_0_0 - flow_2_26_0_0 - flow_2_29_0_0 - flow_2_30_0_0
   + flow_4_2_0_0 + flow_26_2_0_0 + flow_27_2_0_0 + flow_29_2_0_0 = 1
 one_parent_3: = 1
 consume_one_flow_unit_3: = 1
 one_parent_4: edge_0_4_0_0 + edge_1_4_0_0 + edge_2_4_0_0 + edge_26_4_0_0
   = 1
 consume_one_flow_unit_4: flow_0_4_0_0 + flow_1_4_0_0 + flow_2_4_0_0
   - flow_4_1_0_0 - flow_4_2_0_0 - flow_4_26_0_0 - flow_4_27_0_0
   - flow_4_29_0_0 - flow_4_30_0_0 + flow_26_4_0_0 = 1
 one_parent_5: = 1
 consume_one_flow_unit_5: = 1
 one_parent_6: = 1
 consume_one_flow_unit_6: = 1
 one_parent_7: = 1
 consume_one_flow_unit_7: = 1
 one_parent_8: = 1
 consume_one_flow_unit_8: = 1
 one_parent_9: = 1
 consume_one_flow_unit_9: = 1
 one_parent_10: = 1
 consume_one_flow_unit_10: = 1
 one_parent_11: = 1
 consume_one_flow_unit_11: = 1
 one_parent_12: = 1
 consume_one_flow_unit_12: = 1
 one_parent_13: = 1
 consume_one_flow_unit_13: = 1
 one_parent_14: = 1
 consume_one_flow_unit_14: = 1
 one_parent_15: = 1
 consume_one_flow_unit_15: = 1
 one_parent_16: = 1
 consume_one_flow_unit_16: = 1
 one_parent_17: edge_0_17_0_0 + edge_18_17_0_0 + edge_20_17_0_0
   + edge_23_17_0_0 + edge_24_17_0_0 + edge_25_17_0_0 + edge_26_17_0_0
   + edge_27_17_0_0 + edge_29_17_0_0 = 1
 consume_one_flow_unit_17: flow_0_17_0_0 - flow_17_18_0_0 - flow_17_20_0_0
   - flow_17_23_0_0 - flow_17_24_0_0 - flow_17_25_0_0 - flow_17_26_0_0
   - flow_17_27_0_0 - flow_17_29_0_0 - flow_17_30_0_0 + flow_18_17_0_0
   + flow_20_17_0_0 + flow_23_17_0_0 + flow_24_17_0_0 + flow_25_17_0_0
   + flow_26_17_0_0 + flow_27_17_0_0 + flow_29_17_0_0 = 1
 one_parent_18: edge_0_18_0_0 + edge_17_18_0_0 + edge_20_18_0_0
   + edge_23_18_0_0 + edge_24_18_0_0 + edge_26_18_0_0 + edge_27_18_0_0
   + edge_29_18_0_0 + edge_30_18_0_0 = 1
 consume_one_flow_unit_18: flow_0_18_0_0 + flow_17_18_0_0 - flow_18_17_0_0
   - flow_18_20_0_0 - flow_18_23_0_0 - flow_18_24_0_0 - flow_18_25_0_0
   - flow_18_26_0_0 - flow_18_27_0_0 - flow_18_29_0_0 - flow_18_30_0_0
   + flow_20_18_0_0 + flow_23_18_0_0 + flow_24_18_0_0 + flow_26_18_0_0
   + flow_27_18_0_0 + flow_29_18_0_0 + flow_30_18_0_0 = 1
 one_parent_19: = 1
 consume_one_flow_unit_19: = 1
 one_parent_20: edge_0_20_0_0 + edge_17_20_0_0 + edge_18_20_0_0
   + edge_23_20_0_0 + edge_24_20_0_0 + edge_25_20_0_0 + edge_26_20_0_0
   + edge_27_20_0_0 + edge_29_20_0_0 = 1
 consume_one_flow_unit_20: flow_0_20_0_0 + flow_17_20_0_0 + flow_18_20_0_0
   - flow_20_17_0_0 - flow_20_18_0_0 - flow_20_23_0_0 - flow_20_24_0_0
   - flow_20_25_0_0 - flow_20_26_0_0 - flow_20_27_0_0 - flow_20_29_0_0
   - flow_20_30_0_0 + flow_23_20_0_0 + flow_24_20_0_0 + flow_25_20_0_0
   + flow_26_20_0_0 + flow_27_20_0_0 + flow_29_20_0_0 = 1
 one_parent_21: = 1
 consume_one_flow_unit_21: = 1
 one_parent_22: = 1
 consume_one_flow_unit_22: = 1
 one_parent_23: edge_0_23_0_0 + edge_17_23_0_0 + edge_18_23_0_0
   + edge_20_23_0_0 + edge_24_23_0_0 + edge_25_23_0_0 + edge_26_23_0_0
   + edge_27_23_0_0 + edge_29_23_0_0 = 1
 consume_one_flow_unit_23: flow_0_23_0_0 + flow_17_23_0_0 + flow_18_23_0_0
   + flow_20_23_0_0 - flow_23_17_0_0 - flow_23_18_0_0 - flow_23_20_0_0
   - flow_23_24_0_0 + flow_24_23_0_0 + flow_25_23_0_0 + flow_26_23_0_0
   + flow_27_23_0_0 + flow_29_23_0_0 = 1
 one_parent_24: edge_0_24_0_0 + edge_17_24_0_0 + edge_18_24_0_0
   + edge_20_24_0_0 + edge_23_24_0_0 + edge_25_24_0_0 + edge_26_24_0_0
   + edge_27_24_0_0 + edge_29_24_0_0 = 1
 consume_one_flow_unit_24: flow_0_24_0_0 + flow_17_24_0_0 + flow_18_24_0_0
   + flow_20_24_0_0 + flow_23_24_0_0 - flow_24_17_0_0 - flow_24_18_0_0
   - flow_24_20_0_0 - flow_24_23_0_0 - flow_24_25_0_0 - flow_24_26_0_0
   - flow_24_27_0_0 - flow_24_29_0_0 - flow_24_30_0_0 + flow_25_24_0_0
   + flow_26_24_0_0 + flow_27_24_0_0 + flow_29_24_0_0 = 1
 one_parent_25: edge_17_25_0_0 + edge_18_25_0_0 + edge_20_25_0_0
   + edge_24_25_0_0 + edge_26_25_0_0 + edge_27_25_0_0 + edge_29_25_0_0
   + edge_30_25_0_0 = 1
 consume_one_flow_unit_25: flow_17_25_0_0 + flow_18_25_0_0 + flow_20_25_0_0
   + flow_24_25_0_0 - flow_25_17_0_0 - flow_25_20_0_0 - flow_25_23_0_0
   - flow_25_24_0_0 - flow_25_26_0_0 - flow_25_27_0_0 - flow_25_29_0_0
   - flow_25_30_0_0 + flow_26_25_0_0 + flow_27_25_0_0 + flow_29_25_0_0
   + flow_30_25_0_0 = 1
 one_parent_26: edge_0_26_0_0 + edge_1_26_0_0 + edge_2_26_0_0
   + edge_4_26_0_0 + edge_17_26_0_0 + edge_18_26_0_0 + edge_20_26_0_0
   + edge_24_26_0_0 + edge_25_26_0_0 + edge_27_26_0_0 + edge_29_26_0_0
   + edge_30_26_0_0 = 1
 consume_one_flow_unit_26: flow_0_26_0_0 + flow_1_26_0_0 + flow_2_26_0_0
   + flow_4_26_0_0 + flow_17_26_0_0 + flow_18_26_0_0 + flow_20_26_0_0
   + flow_24_26_0_0 + flow_25_26_0_0 - flow_26_1_0_0 - flow_26_2_0_0
   - flow_26_4_0_0 - flow_26_17_0_0 - flow_26_18_0_0 - flow_26_20_0_0
   - flow_26_23_0_0 - flow_26_24_0_0 - flow_26_25_0_0 - flow_26_27_0_0
   - flow_26_29_0_0 - flow_26_30_0_0 + flow_27_26_0_0 + flow_29_26_0_0
   + flow_30_26_0_0 = 1
 one_parent_27: edge_0_27_0_0 + edge_4_27_0_0 + edge_17_27_0_0
   + edge_18_27_0_0 + edge_20_27_0_0 + edge_24_27_0_0 + edge_25_27_0_0
   + edge_26_27_0_0 + edge_29_27_0_0 + edge_30_27_0_0 = 1
 consume_one_flow_unit_27: flow_0_27_0_0 + flow_4_27_0_0 + flow_17_27_0_0
   + flow_18_27_0_0 + flow_20_27_0_0 + flow_24_27_0_0 + flow_25_27_0_0
   + flow_26_27_0_0 - flow_27_2_0_0 - flow_27_17_0_0 - flow_27_18_0_0
   - flow_27_20_0_0 - flow_27_23_0_0 - flow_27_24_0_0 - flow_27_25_0_0
   - flow_27_26_0_0 - flow_27_29_0_0 - flow_27_30_0_0 + flow_29_27_0_0
   + flow_30_27_0_0 = 1
 one_parent_28: = 1
 consume_one_flow_unit_28: = 1
 one_parent_29: edge_0_29_0_0 + edge_1_29_0_0 + edge_2_29_0_0
   + edge_4_29_0_0 + edge_17_29_0_0 + edge_18_29_0_0 + edge_20_29_0_0
   + edge_24_29_0_0 + edge_25_29_0_0 + edge_26_29_0_0 + edge_27_29_0_0
   + edge_30_29_0_0 = 1
 consume_one_flow_unit_29: flow_0_29_0_0 + flow_1_29_0_0 + flow_2_29_0_0
   + flow_4_29_0_0 + flow_17_29_0_0 + flow_18_29_0_0 + flow_20_29_0_0
   + flow_24_29_0_0 + flow_25_29_0_0 + flow_26_29_0_0 + flow_27_29_0_0
   - flow_29_1_0_0 - flow_29_2_0_0 - flow_29_17_0_0 - flow_29_18_0_0
   - flow_29_20_0_0 - flow_29_23_0_0 - flow_29_24_0_0 - flow_29_25_0_0
   - flow_29_26_0_0 - flow_29_27_0_0 - flow_29_30_0_0 + flow_30_29_0_0 = 1
 one_parent_30: edge_0_30_0_0 + edge_1_30_0_0 + edge_2_30_0_0
   + edge_4_30_0_0 + edge_17_30_0_0 + edge_18_30_0_0 + edge_20_30_0_0
   + edge_24_30_0_0 + edge_25_30_0_0 + edge_26_30_0_0 + edge_27_30_0_0
   + edge_29_30_0_0 = 1
 consume_one_flow_unit_30: flow_0_30_0_0 + flow_1_30_0_0 + flow_2_30_0_0
   + flow_4_30_0_0 + flow_17_30_0_0 + flow_18_30_0_0 + flow_20_30_0_0
   + flow_24_30_0_0 + flow_25_30_0_0 + flow_26_30_0_0 + flow_27_30_0_0
   + flow_29_30_0_0 - flow_30_18_0_0 - flow_30_25_0_0 - flow_30_26_0_0
   - flow_30_27_0_0 - flow_30_29_0_0 = 1
 root_flow: flow_0_2_0_0 + flow_0_4_0_0 + flow_0_17_0_0 + flow_0_18_0_0
   + flow_0_20_0_0 + flow_0_23_0_0 + flow_0_24_0_0 + flow_0_26_0_0
   + flow_0_27_0_0 + flow_0_29_0_0 + flow_0_30_0_0 = 30
 inactive_no_flow_0_2_0_0: flow_0_2_0_0 - 1000 edge_0_2_0_0 <= 0
 inactive_no_flow_0_4_0_0: flow_0_4_0_0 - 1000 edge_0_4_0_0 <= 0
 inactive_no_flow_0_17_0_0: flow_0_17_0_0 - 1000 edge_0_17_0_0 <= 0
 inactive_no_flow_0_18_0_0: flow_0_18_0_0 - 1000 edge_0_18_0_0 <= 0
 inactive_no_flow_0_20_0_0: flow_0_20_0_0 - 1000 edge_0_20_0_0 <= 0
 inactive_no_flow_0_23_0_0: flow_0_23_0_0 - 1000 edge_0_23_0_0 <= 0
 inactive_no_flow_0_24_0_0: flow_0_24_0_0 - 1000 edge_0_24_0_0 <= 0
 inactive_no_flow_0_26_0_0: flow_0_26_0_0 - 1000 edge_0_26_0_0 <= 0
 inactive_no_flow_0_27_0_0: flow_0_27_0_0 - 1000 edge_0_27_0_0 <= 0
 inactive_no_flow_0_29_0_0: flow_0_29_0_0 - 1000 edge_0_29_0_0 <= 0
 inactive_no_flow_0_30_0_0: flow_0_30_0_0 - 1000 edge_0_30_0_0 <= 0
 inactive_no_flow_1_2_0_0: flow_1_2_0_0 - 1000 edge_1_2_0_0 <= 0
 inactive_no_flow_1_4_0_0: flow_1_4_0_0 - 1000 edge_1_4_0_0 <= 0
 inactive_no_flow_1_26_0_0: flow_1_26_0_0 - 1000 edge_1_26_0_0 <= 0
 inactive_no_flow_1_29_0_0: flow_1_29_0_0 - 1000 edge_1_29_0_0 <= 0
 inactive_no_flow_1_30_0_0: flow_1_30_0_0 - 1000 edge_1_30_0_0 <= 0
 inactive_no_flow_2_1_0_0: flow_2_1_0_0 - 1000 edge_2_1_0_0 <= 0
 inactive_no_flow_2_4_0_0: flow_2_4_0_0 - 1000 edge_2_4_0_0 <= 0
 inactive_no_flow_2_26_0_0: flow_2_26_0_0 - 1000 edge_2_26_0_0 <= 0
 inactive_no_flow_2_29_0_0: flow_2_29_0_0 - 1000 edge_2_29_0_0 <= 0
 inactive_no_flow_2_30_0_0: flow_2_30_0_0 - 1000 edge_2_30_0_0 <= 0
 inactive_no_flow_4_1_0_0: flow_4_1_0_0 - 1000 edge_4_1_0_0 <= 0
 inactive_no_flow_4_2_0_0: flow_4_2_0_0 - 1000 edge_4_2_0_0 <= 0
 inactive_no_flow_4_26_0_0: flow_4_26_0_0 - 1000 edge_4_26_0_0 <= 0
 inactive_no_flow_4_27_0_0: flow_4_27_0_0 - 1000 edge_4_27_0_0 <= 0
 inactive_no_flow_4_29_0_0: flow_4_29_0_0 - 1000 edge_4_29_0_0 <= 0
 inactive_no_flow_4_30_0_0: flow_4_30_0_0 - 1000 edge_4_30_0_0 <= 0
 inactive_no_flow_17_18_0_0: flow_17_18_0_0 - 1000 edge_17_18_0_0 <= 0
 inactive_no_flow_17_20_0_0: flow_17_20_0_0 - 1000 edge_17_20_0_0 <= 0
 inactive_no_flow_17_23_0_0: flow_17_23_0_0 - 1000 edge_17_23_0_0 <= 0
 inactive_no_flow_17_24_0_0: flow_17_24_0_0 - 1000 edge_17_24_0_0 <= 0
 inactive_no_flow_17_25_0_0: flow_17_25_0_0 - 1000 edge_17_25_0_0 <= 0
 inactive_no_flow_17_26_0_0: flow_17_26_0_0 - 1000 edge_17_26_0_0 <= 0
 inactive_no_flow_17_27_0_0: flow_17_27_0_0 - 1000 edge_17_27_0_0 <= 0
 inactive_no_flow_17_29_0_0: flow_17_29_0_0 - 1000 edge_17_29_0_0 <= 0
 inactive_no_flow_17_30_0_0: flow_17_30_0_0 - 1000 edge_17_30_0_0 <= 0
 inactive_no_flow_18_17_0_0: flow_18_17_0_0 - 1000 edge_18_17_0_0 <= 0
 inactive_no_flow_18_20_0_0: flow_18_20_0_0 - 1000 edge_18_20_0_0 <= 0
 inactive_no_flow_18_23_0_0: flow_18_23_0_0 - 1000 edge_18_23_0_0 <= 0
 inactive_no_flow_18_24_0_0: flow_18_24_0_0 - 1000 edge_18_24_0_0 <= 0
 inactive_no_flow_18_25_0_0: flow_18_25_0_0 - 1000 edge_18_25_0_0 <= 0
 inactive_no_flow_18_26_0_0: flow_18_26_0_0 - 1000 edge_18_26_0_0 <= 0
 inactive_no_flow_18_27_0_0: flow_18_27_0_0 - 1000 edge_18_27_0_0 <= 0
 inactive_no_flow_18_29_0_0: flow_18_29_0_0 - 1000 edge_18_29_0_0 <= 0
 inactive_no_flow_18_30_0_0: flow_18_30_0_0 - 1000 edge_18_30_0_0 <= 0
 inactive_no_flow_20_17_0_0: flow_20_17_0_0 - 1000 edge_20_17_0_0 <= 0
 inactive_no_flow_20_18_0_0: flow_20_18_0_0 - 1000 edge_20_18_0_0 <= 0
 inactive_no_flow_20_23_0_0: flow_20_23_0_0 - 1000 edge_20_23_0_0 <= 0
 inactive_no_flow_20_24_0_0: flow_20_24_0_0 - 1000 edge_20_24_0_0 <= 0
 inactive_no_flow_20_25_0_0: flow_20_25_0_0 - 1000 edge_20_25_0_0 <= 0
 inactive_no_flow_20_26_0_0: flow_20_26_0_0 - 1000 edge_20_26_0_0 <= 0
 inactive_no_flow_20_27_0_0: flow_20_27_0_0 - 1000 edge_20_27_0_0 <= 0
 inactive_no_flow_20_29_0_0: flow_20_29_0_0 - 1000 edge_20_29_0_0 <= 0
 inactive_no_flow_20_30_0_0: flow_20_30_0_0 - 1000 edge_20_30_0_0 <= 0
 inactive_no_flow_23_17_0_0: flow_23_17_0_0 - 1000 edge_23_17_0_0 <= 0
 inactive_no_flow_23_18_0_0: flow_23_18_0_0 - 1000 edge_23_18_0_0 <= 0
 inactive_no_flow_23_20_0_0: flow_23_20_0_0 - 1000 edge_23_20_0_0 <= 0
 inactive_no_flow_23_24_0_0: flow_23_24_0_0 - 1000 edge_23_24_0_0 <= 0
 inactive_no_flow_24_17_0_0: flow_24_17_0_0 - 1000 edge_24_17_0_0 <= 0
 inactive_no_flow_24_18_0_0: flow_24_18_0_0 - 1000 edge_24_18_0_0 <= 0
 inactive_no_flow_24_20_0_0: flow_24_20_0_0 - 1000 edge_24_20_0_0 <= 0
 inactive_no_flow_24_23_0_0: flow_24_23_0_0 - 1000 edge_24_23_0_0 <= 0
 inactive_no_flow_24_25_0_0: flow_24_25_0_0 - 1000 edge_24_25_0_0 <= 0
 inactive_no_flow_24_26_0_0: flow_24_26_0_0 - 1000 edge_24_26_0_0 <= 0
 inactive_no_flow_24_27_0_0: flow_24_27_0_0 - 1000 edge_24_27_0_0 <= 0
 inactive_no_flow_24_29_0_0: flow_24_29_0_0 - 1000 edge_24_29_0_0 <= 0
 inactive_no_flow_24_30_0_0: flow_24_30_0_0 - 1000 edge_24_30_0_0 <= 0
 inactive_no_flow_25_17_0_0: flow_25_17_0_0 - 1000 edge_25_17_0_0 <= 0
 inactive_no_flow_25_20_0_0: flow_25_20_0_0 - 1000 edge_25_20_0_0 <= 0
 inactive_no_flow_25_23_0_0: flow_25_23_0_0 - 1000 edge_25_23_0_0 <= 0
 inactive_no_flow_25_24_0_0: flow_25_24_0_0 - 1000 edge_25_24_0_0 <= 0
 inactive_no_flow_25_26_0_0: flow_25_26_0_0 - 1000 edge_25_26_0_0 <= 0
 inactive_no_flow_25_27_0_0: flow_25_27_0_0 - 1000 edge_25_27_0_0 <= 0
 inactive_no_flow_25_29_0_0: flow_25_29_0_0 - 1000 edge_25_29_0_0 <= 0
 inactive_no_flow_25_30_0_0: flow_25_30_0_0 - 1000 edge_25_30_0_0 <= 0
 inactive_no_flow_26_1_0_0: flow_26_1_0_0 - 1000 edge_26_1_0_0 <= 0
 inactive_no_flow_26_2_0_0: flow_26_2_0_0 - 1000 edge_26_2_0_0 <= 0
 inactive_no_flow_26_4_0_0: flow_26_4_0_0 - 1000 edge_26_4_0_0 <= 0
 inactive_no_flow_26_17_0_0: flow_26_17_0_0 - 1000 edge_26_17_0_0 <= 0
 inactive_no_flow_26_18_0_0: flow_26_18_0_0 - 1000 edge_26_18_0_0 <= 0
 inactive_no_flow_26_20_0_0: flow_26_20_0_0 - 1000 edge_26_20_0_0 <= 0
 inactive_no_flow_26_23_0_0: flow_26_23_0_0 - 1000 edge_26_23_0_0 <= 0
 inactive_no_flow_26_24_0_0: flow_26_24_0_0 - 1000 edge_26_24_0_0 <= 0
 inactive_no_flow_26_25_0_0: flow_26_25_0_0 - 1000 edge_26_25_0_0 <= 0
 inactive_no_flow_26_27_0_0: flow_26_27_0_0 - 1000 edge_26_27_0_0 <= 0
 inactive_no_flow_26_29_0_0: flow_26_29_0_0 - 1000 edge_26_29_0_0 <= 0
 inactive_no_flow_26_30_0_0: flow_26_30_0_0 - 1000 edge_26_30_0_0 <= 0
 inactive_no_flow_27_2_0_0: flow_27_2_0_0 - 1000 edge_27_2_0_0 <= 0
 inactive_no_flow_27_17_0_0: flow_27_17_0_0 - 1000 edge_27_17_0_0 <= 0
 inactive_no_flow_27_18_0_0: flow_27_18_0_0 - 1000 edge_27_18_0_0 <= 0
 inactive_no_flow_27_20_0_0: flow_27_20_0_0 - 1000 edge_27_20_0_0 <= 0
 inactive_no_flow_27_23_0_0: flow_27_23_0_0 - 1000 edge_27_23_0_0 <= 0
 inactive_no_flow_27_24_0_0: flow_27_24_0_0 - 1000 edge_27_24_0_0 <= 0
 inactive_no_flow_27_25_0_0: flow_27_25_0_0 - 1000 edge_27_25_0_0 <= 0
 inactive_no_flow_27_26_0_0: flow_27_26_0_0 - 1000 edge_27_26_0_0 <= 0
 inactive_no_flow_27_29_0_0: flow_27_29_0_0 - 1000 edge_27_29_0_0 <= 0
 inactive_no_flow_27_30_0_0: flow_27_30_0_0 - 1000 edge_27_30_0_0 <= 0
 inactive_no_flow_29_1_0_0: flow_29_1_0_0 - 1000 edge_29_1_0_0 <= 0
 inactive_no_flow_29_2_0_0: flow_29_2_0_0 - 1000 edge_29_2_0_0 <= 0
 inactive_no_flow_29_17_0_0: flow_29_17_0_0 - 1000 edge_29_17_0_0 <= 0
 inactive_no_flow_29_18_0_0: flow_29_18_0_0 - 1000 edge_29_18_0_0 <= 0
 inactive_no_flow_29_20_0_0: flow_29_20_0_0 - 1000 edge_29_20_0_0 <= 0
 inactive_no_flow_29_23_0_0: flow_29_23_0_0 - 1000 edge_29_23_0_0 <= 0
 inactive_no_flow_29_24_0_0: flow_29_24_0_0 - 1000 edge_29_24_0_0 <= 0
 inactive_no_flow_29_25_0_0: flow_29_25_0_0 - 1000 edge_29_25_0_0 <= 0
 inactive_no_flow_29_26_0_0: flow_29_26_0_0 - 1000 edge_29_26_0_0 <= 0
 inactive_no_flow_29_27_0_0: flow_29_27_0_0 - 1000 edge_29_27_0_0 <= 0
 inactive_no_flow_29_30_0_0: flow_29_30_0_0 - 1000 edge_29_30_0_0 <= 0
 inactive_no_flow_30_18_0_0: flow_30_18_0_0 - 1000 edge_30_18_0_0 <= 0
 inactive_no_flow_30_25_0_0: flow_30_25_0_0 - 1000 edge_30_25_0_0 <= 0
 inactive_no_flow_30_26_0_0: flow_30_26_0_0 - 1000 edge_30_26_0_0 <= 0
 inactive_no_flow_30_27_0_0: flow_30_27_0_0 - 1000 edge_30_27_0_0 <= 0
 inactive_no_flow_30_29_0_0: flow_30_29_0_0 - 1000 edge_30_29_0_0 <= 0
Bounds
Binaries
 edge_0_2_0_0 edge_0_4_0_0 edge_0_17_0_0 edge_0_18_0_0 edge_0_20_0_0
 edge_0_23_0_0 edge_0_24_0_0 edge_0_26_0_0 edge_0_27_0_0 edge_0_29_0_0
 edge_0_30_0_0 edge_1_2_0_0 edge_1_4_0_0 edge_1_26_0_0 edge_1_29_0_0
 edge_1_30_0_0 edge_2_1_0_0 edge_2_4_0_0 edge_2_26_0_0 edge_2_29_0_0
 edge_2_30_0_0 edge_4_1_0_0 edge_4_2_0_0 edge_4_26_0_0 edge_4_27_0_0
 edge_4_29_0_0 edge_4_30_0_0 edge_17_18_0_0 edge_17_20_0_0 edge_17_23_0_0
 edge_17_24_0_0 edge_17_25_0_0 edge_17_26_0_0 edge_17_27_0_0 edge_17_29_0_0
 edge_17_30_0_0 edge_18_17_0_0 edge_18_20_0_0 edge_18_23_0_0 edge_18_24_0_0
 edge_18_25_0_0 edge_18_26_0_0 edge_18_27_0_0 edge_18_29_0_0 edge_18_30_0_0
 edge_20_17_0_0 edge_20_18_0_0 edge_20_23_0_0 edge_20_24_0_0 edge_20_25_0_0
 edge_20_26_0_0 edge_20_27_0_0 edge_20_29_0_0 edge_20_30_0_0 edge_23_17_0_0
 edge_23_18_0_0 edge_23_20_0_0 edge_23_24_0_0 edge_24_17_0_0 edge_24_18_0_0
 edge_24_20_0_0 edge_24_23_0_0 edge_24_25_0_0 edge_24_26_0_0 edge_24_27_0_0
 edge_24_29_0_0 edge_24_30_0_0 edge_25_17_0_0 edge_25_20_0_0 edge_25_23_0_0
 edge_25_24_0_0 edge_25_26_0_0 edge_25_27_0_0 edge_25_29_0_0 edge_25_30_0_0
 edge_26_1_0_0 edge_26_2_0_0 edge_26_4_0_0 edge_26_17_0_0 edge_26_18_0_0
 edge_26_20_0_0 edge_26_23_0_0 edge_26_24_0_0 edge_26_25_0_0 edge_26_27_0_0
 edge_26_29_0_0 edge_26_30_0_0 edge_27_2_0_0 edge_27_17_0_0 edge_27_18_0_0
 edge_27_20_0_0 edge_27_23_0_0 edge_27_24_0_0 edge_27_25_0_0 edge_27_26_0_0
 edge_27_29_0_0 edge_27_30_0_0 edge_29_1_0_0 edge_29_2_0_0 edge_29_17_0_0
 edge_29_18_0_0 edge_29_20_0_0 edge_29_23_0_0 edge_29_24_0_0 edge_29_25_0_0
 edge_29_26_0_0 edge_29_27_0_0 edge_29_30_0_0 edge_30_18_0_0 edge_30_25_0_0
 edge_30_26_0_0 edge_30_27_0_0 edge_30_29_0_0
End
